Maximize

1 x_0_0 + 2 x_0_1 + 4 x_0_2 + 5 x_0_3 + 1 x_1_0 + 2 x_1_1 + 5 x_1_2 + 0 x_1_3 + 0 x_2_0 + 5 x_2_1 + 2 x_2_2 + 3 x_2_3 + 5 x_3_0 + 0 x_3_1 + 2 x_3_2 + 3 x_3_3 + 2 x_4_0 + 3 x_4_1 + 0 x_4_2 + 5 x_4_3 + 3 x_5_0 + 0 x_5_1 + 5 x_5_2 + 1 x_5_3 + 1 x_6_0 + 5 x_6_1 + 0 x_6_2 + 2 x_6_3 + 5 x_7_0 + 3 x_7_1 + 2 x_7_2 + 0 x_7_3


Subject To

a0: x_0_0 + x_0_1 + x_0_2 + x_0_3 = 1
a1: x_1_0 + x_1_1 + x_1_2 + x_1_3 = 1
a2: x_2_0 + x_2_1 + x_2_2 + x_2_3 = 1
a3: x_3_0 + x_3_1 + x_3_2 + x_3_3 = 1
a4: x_4_0 + x_4_1 + x_4_2 + x_4_3 = 1
a5: x_5_0 + x_5_1 + x_5_2 + x_5_3 = 1
a6: x_6_0 + x_6_1 + x_6_2 + x_6_3 = 1
a7: x_7_0 + x_7_1 + x_7_2 + x_7_3 = 1
b0: x_0_0 + x_1_0 + x_3_0 + x_4_0 + x_5_0 + x_6_0 + x_7_0 = 2
b1: x_0_1 + x_1_1 + x_2_1 + x_4_1 + x_6_1 + x_7_1 = 2
b2: x_0_2 + x_1_2 + x_2_2 + x_3_2 + x_5_2 + x_7_2 = 2
b3: x_0_3 + x_2_3 + x_3_3 + x_4_3 + x_5_3 + x_6_3 = 2




Binary

x_0_0 x_0_1 x_0_2 x_0_3 x_1_0 x_1_1 x_1_2 x_1_3 x_2_0 x_2_1 x_2_2 x_2_3 x_3_0 x_3_1 x_3_2 x_3_3 x_4_0 x_4_1 x_4_2 x_4_3 x_5_0 x_5_1 x_5_2 x_5_3 x_6_0 x_6_1 x_6_2 x_6_3 x_7_0 x_7_1 x_7_2 x_7_3

 
End
